(set-logic QF_LIA)
(declare-fun x0 () Int)
(declare-fun x1 () Int)
(declare-fun x2 () Int)
(declare-fun x3 () Int)
(declare-fun x4 () Int)
(declare-fun x5 () Int)
(declare-fun x6 () Int)
(declare-fun x7 () Int)
(declare-fun x8 () Int)
(declare-fun x9 () Int)
(declare-fun A0 () Bool)
(declare-fun A1 () Bool)
(declare-fun A2 () Bool)
(declare-fun A3 () Bool)
(declare-fun A4 () Bool)
(declare-fun A5 () Bool)
(declare-fun A6 () Bool)
(declare-fun A7 () Bool)
(declare-fun A8 () Bool)
(declare-fun A9 () Bool)
(assert (let ((.def_0 (not A7))) (let ((.def_1 (= A2 .def_0))) (let ((.def_2 (not .def_1))) (let ((.def_3 (* 1 x8))) (let ((.def_4 (* (- 1) x4))) (let ((.def_5 (+ .def_4 .def_3))) (let ((.def_6 (< .def_5 1))) (let ((.def_7 (not .def_6))) (let ((.def_8 (* 1 x5))) (let ((.def_9 (< .def_8 1))) (let ((.def_10 (not .def_9))) (let ((.def_11 (and .def_10 .def_7))) (let ((.def_12 (or .def_11 .def_2))) (let ((.def_13 (* (- 1) x8))) (let ((.def_14 (* (- 1) x2))) (let ((.def_15 (+ .def_14 .def_13))) (let ((.def_16 (< .def_15 (- 1)))) (let ((.def_17 (not .def_16))) (let ((.def_18 (or .def_17 A1))) (let ((.def_19 (not .def_18))) (let ((.def_20 (* (- 1) x3))) (let ((.def_21 (< .def_20 1))) (let ((.def_22 (* 1 x4))) (let ((.def_23 (+ .def_13 .def_22))) (let ((.def_24 (< .def_23 1))) (let ((.def_25 (= .def_24 .def_21))) (let ((.def_26 (not .def_25))) (let ((.def_27 (or .def_26 .def_19))) (let ((.def_28 (not .def_27))) (let ((.def_29 (or .def_28 .def_12))) (let ((.def_30 (not .def_29))) (let ((.def_31 (and .def_0 .def_0))) (let ((.def_32 (not .def_31))) (let ((.def_33 (* (- 1) x5))) (let ((.def_34 (+ .def_14 .def_33))) (let ((.def_35 (< .def_34 (- 1)))) (let ((.def_36 (not .def_35))) (let ((.def_37 (not A6))) (let ((.def_38 (and .def_37 .def_36))) (let ((.def_39 (not .def_38))) (let ((.def_40 (= .def_39 .def_32))) (let ((.def_41 (not .def_40))) (let ((.def_42 (* 1 x6))) (let ((.def_43 (+ .def_8 .def_42))) (let ((.def_44 (< .def_43 (- 1)))) (let ((.def_45 (and A5 .def_44))) (let ((.def_46 (not A8))) (let ((.def_47 (* 1 x0))) (let ((.def_48 (+ .def_13 .def_47))) (let ((.def_49 (< .def_48 1))) (let ((.def_50 (not .def_49))) (let ((.def_51 (and .def_50 .def_46))) (let ((.def_52 (= .def_51 .def_45))) (let ((.def_53 (or .def_52 .def_41))) (let ((.def_54 (not .def_53))) (let ((.def_55 (and .def_54 .def_30))) (let ((.def_56 (* 1 x7))) (let ((.def_57 (+ .def_56 .def_47))) (let ((.def_58 (< .def_57 (- 1)))) (let ((.def_59 (< .def_3 1))) (let ((.def_60 (and .def_59 .def_58))) (let ((.def_61 (not .def_60))) (let ((.def_62 (not A5))) (let ((.def_63 (or A1 .def_62))) (let ((.def_64 (not .def_63))) (let ((.def_65 (or .def_64 .def_61))) (let ((.def_66 (not A9))) (let ((.def_67 (or .def_37 .def_66))) (let ((.def_68 (not A2))) (let ((.def_69 (not A3))) (let ((.def_70 (and .def_69 .def_68))) (let ((.def_71 (and .def_70 .def_67))) (let ((.def_72 (and .def_71 .def_65))) (let ((.def_73 (not .def_72))) (let ((.def_74 (* (- 1) x6))) (let ((.def_75 (< .def_74 1))) (let ((.def_76 (not .def_75))) (let ((.def_77 (or A1 .def_76))) (let ((.def_78 (and A8 .def_69))) (let ((.def_79 (not .def_78))) (let ((.def_80 (or .def_79 .def_77))) (let ((.def_81 (not .def_80))) (let ((.def_82 (and A5 A6))) (let ((.def_83 (not .def_82))) (let ((.def_84 (* (- 1) x7))) (let ((.def_85 (* 1 x1))) (let ((.def_86 (+ .def_85 .def_84))) (let ((.def_87 (< .def_86 (- 1)))) (let ((.def_88 (and .def_87 A7))) (let ((.def_89 (or .def_88 .def_83))) (let ((.def_90 (or .def_89 .def_81))) (let ((.def_91 (or .def_90 .def_73))) (let ((.def_92 (not .def_91))) (let ((.def_93 (or .def_92 .def_55))) (let ((.def_94 (not .def_93))) (let ((.def_95 (or A0 A7))) (let ((.def_96 (not .def_95))) (let ((.def_97 (= A6 .def_68))) (let ((.def_98 (not .def_97))) (let ((.def_99 (and .def_98 .def_96))) (let ((.def_100 (not .def_99))) (let ((.def_101 (< .def_42 (- 1)))) (let ((.def_102 (+ .def_14 .def_84))) (let ((.def_103 (< .def_102 1))) (let ((.def_104 (or .def_103 .def_101))) (let ((.def_105 (not .def_104))) (let ((.def_106 (< .def_42 1))) (let ((.def_107 (not .def_106))) (let ((.def_108 (and A4 .def_107))) (let ((.def_109 (not .def_108))) (let ((.def_110 (or .def_109 .def_105))) (let ((.def_111 (not .def_110))) (let ((.def_112 (and .def_111 .def_100))) (let ((.def_113 (not .def_112))) (let ((.def_114 (and A5 A5))) (let ((.def_115 (not .def_114))) (let ((.def_116 (not A1))) (let ((.def_117 (< .def_85 1))) (let ((.def_118 (not .def_117))) (let ((.def_119 (and .def_118 .def_116))) (let ((.def_120 (and .def_119 .def_115))) (let ((.def_121 (+ .def_3 .def_20))) (let ((.def_122 (< .def_121 (- 1)))) (let ((.def_123 (or A6 .def_122))) (let ((.def_124 (< .def_14 1))) (let ((.def_125 (not .def_124))) (let ((.def_126 (and .def_68 .def_125))) (let ((.def_127 (not .def_126))) (let ((.def_128 (and .def_127 .def_123))) (let ((.def_129 (not .def_128))) (let ((.def_130 (= .def_129 .def_120))) (let ((.def_131 (not .def_130))) (let ((.def_132 (or .def_131 .def_113))) (let ((.def_133 (or A0 A3))) (let ((.def_134 (* (- 1) x9))) (let ((.def_135 (< .def_134 (- 1)))) (let ((.def_136 (not .def_135))) (let ((.def_137 (and .def_136 A6))) (let ((.def_138 (not .def_137))) (let ((.def_139 (or .def_138 .def_133))) (let ((.def_140 (not .def_139))) (let ((.def_141 (* (- 1) x1))) (let ((.def_142 (* (- 1) x0))) (let ((.def_143 (+ .def_142 .def_141))) (let ((.def_144 (< .def_143 (- 1)))) (let ((.def_145 (not .def_144))) (let ((.def_146 (* 1 x9))) (let ((.def_147 (< .def_146 1))) (let ((.def_148 (not .def_147))) (let ((.def_149 (and .def_148 .def_145))) (let ((.def_150 (and .def_62 .def_124))) (let ((.def_151 (not .def_150))) (let ((.def_152 (or .def_151 .def_149))) (let ((.def_153 (not .def_152))) (let ((.def_154 (and .def_153 .def_140))) (let ((.def_155 (not .def_154))) (let ((.def_156 (+ .def_142 .def_74))) (let ((.def_157 (< .def_156 1))) (let ((.def_158 (not .def_157))) (let ((.def_159 (* 1 x3))) (let ((.def_160 (< .def_159 1))) (let ((.def_161 (not .def_160))) (let ((.def_162 (or .def_161 .def_158))) (let ((.def_163 (not .def_162))) (let ((.def_164 (= .def_37 A3))) (let ((.def_165 (not .def_164))) (let ((.def_166 (and .def_165 .def_163))) (let ((.def_167 (or A1 A2))) (let ((.def_168 (not .def_167))) (let ((.def_169 (not A4))) (let ((.def_170 (= .def_169 .def_66))) (let ((.def_171 (not .def_170))) (let ((.def_172 (and .def_171 .def_168))) (let ((.def_173 (not .def_172))) (let ((.def_174 (or .def_173 .def_166))) (let ((.def_175 (not .def_174))) (let ((.def_176 (or .def_175 .def_155))) (let ((.def_177 (not .def_176))) (let ((.def_178 (and .def_177 .def_132))) (let ((.def_179 (not .def_178))) (let ((.def_180 (and .def_179 .def_94))) (let ((.def_181 (+ .def_42 .def_8))) (let ((.def_182 (< .def_181 (- 1)))) (let ((.def_183 (not .def_182))) (let ((.def_184 (or .def_183 A3))) (let ((.def_185 (not .def_184))) (let ((.def_186 (< .def_56 1))) (let ((.def_187 (or .def_0 .def_186))) (let ((.def_188 (or .def_187 .def_185))) (let ((.def_189 (not .def_188))) (let ((.def_190 (not A0))) (let ((.def_191 (or A8 .def_190))) (let ((.def_192 (not .def_191))) (let ((.def_193 (and A7 .def_62))) (let ((.def_194 (not .def_193))) (let ((.def_195 (= .def_194 .def_192))) (let ((.def_196 (not .def_195))) (let ((.def_197 (or .def_196 .def_189))) (let ((.def_198 (< .def_142 1))) (let ((.def_199 (not .def_198))) (let ((.def_200 (or .def_199 .def_62))) (let ((.def_201 (+ .def_42 .def_84))) (let ((.def_202 (< .def_201 (- 1)))) (let ((.def_203 (not .def_202))) (let ((.def_204 (and .def_203 .def_116))) (let ((.def_205 (not .def_204))) (let ((.def_206 (or .def_205 .def_200))) (let ((.def_207 (< .def_47 1))) (let ((.def_208 (not .def_207))) (let ((.def_209 (or .def_124 .def_208))) (let ((.def_210 (not .def_209))) (let ((.def_211 (+ .def_56 .def_33))) (let ((.def_212 (< .def_211 (- 1)))) (let ((.def_213 (not .def_212))) (let ((.def_214 (or .def_213 A8))) (let ((.def_215 (not .def_214))) (let ((.def_216 (or .def_215 .def_210))) (let ((.def_217 (or .def_216 .def_206))) (let ((.def_218 (and .def_217 .def_197))) (let ((.def_219 (* 1 x2))) (let ((.def_220 (+ .def_20 .def_219))) (let ((.def_221 (< .def_220 (- 1)))) (let ((.def_222 (not .def_221))) (let ((.def_223 (or .def_0 .def_222))) (let ((.def_224 (+ .def_22 .def_142))) (let ((.def_225 (< .def_224 1))) (let ((.def_226 (not .def_225))) (let ((.def_227 (or .def_226 .def_69))) (let ((.def_228 (not .def_227))) (let ((.def_229 (= .def_228 .def_223))) (let ((.def_230 (not .def_229))) (let ((.def_231 (and A1 A6))) (let ((.def_232 (not .def_231))) (let ((.def_233 (+ .def_159 .def_56))) (let ((.def_234 (< .def_233 1))) (let ((.def_235 (and .def_234 .def_37))) (let ((.def_236 (not .def_235))) (let ((.def_237 (or .def_236 .def_232))) (let ((.def_238 (not .def_237))) (let ((.def_239 (or .def_238 .def_230))) (let ((.def_240 (not .def_239))) (let ((.def_241 (+ .def_84 .def_13))) (let ((.def_242 (< .def_241 (- 1)))) (let ((.def_243 (not .def_242))) (let ((.def_244 (+ .def_3 .def_56))) (let ((.def_245 (< .def_244 1))) (let ((.def_246 (not .def_245))) (let ((.def_247 (and .def_246 .def_243))) (let ((.def_248 (not .def_247))) (let ((.def_249 (or A5 A7))) (let ((.def_250 (and .def_249 .def_248))) (let ((.def_251 (not .def_250))) (let ((.def_252 (and .def_0 .def_106))) (let ((.def_253 (< .def_4 (- 1)))) (let ((.def_254 (not .def_253))) (let ((.def_255 (or .def_66 .def_254))) (let ((.def_256 (not .def_255))) (let ((.def_257 (or .def_256 .def_252))) (let ((.def_258 (not .def_257))) (let ((.def_259 (or .def_258 .def_251))) (let ((.def_260 (not .def_259))) (let ((.def_261 (and .def_260 .def_240))) (let ((.def_262 (and .def_261 .def_218))) (let ((.def_263 (and A0 .def_169))) (let ((.def_264 (+ .def_4 .def_8))) (let ((.def_265 (< .def_264 1))) (let ((.def_266 (not .def_265))) (let ((.def_267 (and A7 .def_266))) (let ((.def_268 (and .def_267 .def_263))) (let ((.def_269 (not .def_268))) (let ((.def_270 (< .def_14 (- 1)))) (let ((.def_271 (or .def_270 A2))) (let ((.def_272 (+ .def_3 .def_4))) (let ((.def_273 (< .def_272 (- 1)))) (let ((.def_274 (not .def_273))) (let ((.def_275 (and .def_62 .def_274))) (let ((.def_276 (or .def_275 .def_271))) (let ((.def_277 (not .def_276))) (let ((.def_278 (or .def_277 .def_269))) (let ((.def_279 (not .def_278))) (let ((.def_280 (+ .def_47 .def_8))) (let ((.def_281 (< .def_280 1))) (let ((.def_282 (not .def_281))) (let ((.def_283 (and A7 .def_282))) (let ((.def_284 (not .def_283))) (let ((.def_285 (and .def_69 A1))) (let ((.def_286 (and .def_285 .def_284))) (let ((.def_287 (not .def_286))) (let ((.def_288 (or A9 .def_199))) (let ((.def_289 (< .def_141 1))) (let ((.def_290 (not .def_289))) (let ((.def_291 (or .def_169 .def_290))) (let ((.def_292 (and .def_291 .def_288))) (let ((.def_293 (not .def_292))) (let ((.def_294 (or .def_293 .def_287))) (let ((.def_295 (not .def_294))) (let ((.def_296 (and .def_295 .def_279))) (let ((.def_297 (not .def_296))) (let ((.def_298 (+ .def_56 .def_85))) (let ((.def_299 (< .def_298 (- 1)))) (let ((.def_300 (and .def_299 .def_66))) (let ((.def_301 (< .def_13 1))) (let ((.def_302 (+ .def_146 .def_84))) (let ((.def_303 (< .def_302 (- 1)))) (let ((.def_304 (not .def_303))) (let ((.def_305 (or .def_304 .def_301))) (let ((.def_306 (or .def_305 .def_300))) (let ((.def_307 (not .def_306))) (let ((.def_308 (< .def_143 1))) (let ((.def_309 (+ .def_3 .def_14))) (let ((.def_310 (< .def_309 (- 1)))) (let ((.def_311 (not .def_310))) (let ((.def_312 (or .def_311 .def_308))) (let ((.def_313 (not .def_119))) (let ((.def_314 (or .def_313 .def_312))) (let ((.def_315 (or .def_314 .def_307))) (let ((.def_316 (< .def_159 (- 1)))) (let ((.def_317 (+ .def_22 .def_84))) (let ((.def_318 (< .def_317 1))) (let ((.def_319 (or .def_318 .def_316))) (let ((.def_320 (not .def_319))) (let ((.def_321 (and .def_0 A2))) (let ((.def_322 (and .def_321 .def_320))) (let ((.def_323 (or A9 .def_0))) (let ((.def_324 (or A8 .def_46))) (let ((.def_325 (not .def_324))) (let ((.def_326 (and .def_325 .def_323))) (let ((.def_327 (not .def_326))) (let ((.def_328 (and .def_327 .def_322))) (let ((.def_329 (not .def_328))) (let ((.def_330 (and .def_329 .def_315))) (let ((.def_331 (not .def_330))) (let ((.def_332 (= .def_331 .def_297))) (let ((.def_333 (and .def_332 .def_262))) (let ((.def_334 (or .def_333 .def_180))) (let ((.def_335 (not .def_334))) (let ((.def_336 (+ .def_56 .def_4))) (let ((.def_337 (< .def_336 (- 1)))) (let ((.def_338 (or .def_337 .def_46))) (let ((.def_339 (not .def_338))) (let ((.def_340 (+ .def_146 .def_141))) (let ((.def_341 (< .def_340 (- 1)))) (let ((.def_342 (not .def_341))) (let ((.def_343 (or .def_116 .def_342))) (let ((.def_344 (not .def_343))) (let ((.def_345 (and .def_344 .def_339))) (let ((.def_346 (not .def_345))) (let ((.def_347 (+ .def_146 .def_20))) (let ((.def_348 (< .def_347 (- 1)))) (let ((.def_349 (+ .def_14 .def_8))) (let ((.def_350 (< .def_349 1))) (let ((.def_351 (and .def_350 .def_348))) (let ((.def_352 (+ .def_219 .def_85))) (let ((.def_353 (< .def_352 1))) (let ((.def_354 (not .def_353))) (let ((.def_355 (or .def_354 .def_118))) (let ((.def_356 (not .def_355))) (let ((.def_357 (and .def_356 .def_351))) (let ((.def_358 (not .def_357))) (let ((.def_359 (or .def_358 .def_346))) (let ((.def_360 (not .def_359))) (let ((.def_361 (or A7 A5))) (let ((.def_362 (not .def_361))) (let ((.def_363 (+ .def_141 .def_3))) (let ((.def_364 (< .def_363 1))) (let ((.def_365 (and .def_364 A5))) (let ((.def_366 (or .def_365 .def_362))) (let ((.def_367 (or .def_190 .def_62))) (let ((.def_368 (not .def_367))) (let ((.def_369 (+ .def_134 .def_84))) (let ((.def_370 (< .def_369 1))) (let ((.def_371 (or .def_116 .def_370))) (let ((.def_372 (not .def_371))) (let ((.def_373 (or .def_372 .def_368))) (let ((.def_374 (= .def_373 .def_366))) (let ((.def_375 (or .def_374 .def_360))) (let ((.def_376 (and A8 A2))) (let ((.def_377 (+ .def_33 .def_3))) (let ((.def_378 (< .def_377 (- 1)))) (let ((.def_379 (and .def_378 A5))) (let ((.def_380 (and .def_379 .def_376))) (let ((.def_381 (not .def_380))) (let ((.def_382 (or .def_59 A1))) (let ((.def_383 (+ .def_146 .def_3))) (let ((.def_384 (< .def_383 1))) (let ((.def_385 (not .def_384))) (let ((.def_386 (or .def_385 A7))) (let ((.def_387 (and .def_386 .def_382))) (let ((.def_388 (not .def_387))) (let ((.def_389 (or .def_388 .def_381))) (let ((.def_390 (+ .def_74 .def_47))) (let ((.def_391 (< .def_390 1))) (let ((.def_392 (or A4 .def_391))) (let ((.def_393 (not .def_392))) (let ((.def_394 (or .def_242 .def_69))) (let ((.def_395 (or .def_394 .def_393))) (let ((.def_396 (not .def_395))) (let ((.def_397 (< .def_85 (- 1)))) (let ((.def_398 (and .def_397 A8))) (let ((.def_399 (+ .def_13 .def_14))) (let ((.def_400 (< .def_399 (- 1)))) (let ((.def_401 (+ .def_42 .def_85))) (let ((.def_402 (< .def_401 (- 1)))) (let ((.def_403 (and .def_402 .def_400))) (let ((.def_404 (and .def_403 .def_398))) (let ((.def_405 (not .def_404))) (let ((.def_406 (or .def_405 .def_396))) (let ((.def_407 (= .def_406 .def_389))) (let ((.def_408 (and .def_407 .def_375))) (let ((.def_409 (+ .def_20 .def_33))) (let ((.def_410 (< .def_409 (- 1)))) (let ((.def_411 (or A0 .def_410))) (let ((.def_412 (+ .def_84 .def_42))) (let ((.def_413 (< .def_412 1))) (let ((.def_414 (and .def_413 .def_169))) (let ((.def_415 (or .def_414 .def_411))) (let ((.def_416 (not .def_415))) (let ((.def_417 (or .def_68 A9))) (let ((.def_418 (not .def_417))) (let ((.def_419 (< .def_13 (- 1)))) (let ((.def_420 (or .def_419 .def_169))) (let ((.def_421 (not .def_420))) (let ((.def_422 (and .def_421 .def_418))) (let ((.def_423 (and .def_422 .def_416))) (let ((.def_424 (not .def_59))) (let ((.def_425 (or A6 .def_424))) (let ((.def_426 (not .def_425))) (let ((.def_427 (and .def_62 .def_9))) (let ((.def_428 (not .def_427))) (let ((.def_429 (and .def_428 .def_426))) (let ((.def_430 (< .def_84 1))) (let ((.def_431 (or .def_430 .def_289))) (let ((.def_432 (not .def_431))) (let ((.def_433 (not .def_270))) (let ((.def_434 (and .def_433 .def_69))) (let ((.def_435 (not .def_434))) (let ((.def_436 (and .def_435 .def_432))) (let ((.def_437 (not .def_436))) (let ((.def_438 (or .def_437 .def_429))) (let ((.def_439 (= .def_438 .def_423))) (let ((.def_440 (not .def_439))) (let ((.def_441 (+ .def_142 .def_22))) (let ((.def_442 (< .def_441 1))) (let ((.def_443 (not .def_442))) (let ((.def_444 (< .def_3 (- 1)))) (let ((.def_445 (not .def_444))) (let ((.def_446 (and .def_445 .def_443))) (let ((.def_447 (not .def_446))) (let ((.def_448 (< .def_33 (- 1)))) (let ((.def_449 (or .def_448 A2))) (let ((.def_450 (= .def_449 .def_447))) (let ((.def_451 (and .def_116 .def_9))) (let ((.def_452 (not .def_451))) (let ((.def_453 (+ .def_141 .def_134))) (let ((.def_454 (< .def_453 (- 1)))) (let ((.def_455 (not .def_454))) (let ((.def_456 (and .def_455 A2))) (let ((.def_457 (not .def_456))) (let ((.def_458 (and .def_457 .def_452))) (let ((.def_459 (and .def_458 .def_450))) (let ((.def_460 (not .def_459))) (let ((.def_461 (and .def_37 A6))) (let ((.def_462 (< .def_141 (- 1)))) (let ((.def_463 (or .def_462 .def_66))) (let ((.def_464 (or .def_463 .def_461))) (let ((.def_465 (not .def_464))) (let ((.def_466 (not .def_462))) (let ((.def_467 (and .def_466 .def_433))) (let ((.def_468 (< .def_84 (- 1)))) (let ((.def_469 (not .def_468))) (let ((.def_470 (or .def_469 .def_169))) (let ((.def_471 (and .def_470 .def_467))) (let ((.def_472 (or .def_471 .def_465))) (let ((.def_473 (not .def_472))) (let ((.def_474 (or .def_473 .def_460))) (let ((.def_475 (and .def_474 .def_440))) (let ((.def_476 (not .def_475))) (let ((.def_477 (and .def_476 .def_408))) (let ((.def_478 (+ .def_47 .def_22))) (let ((.def_479 (< .def_478 (- 1)))) (let ((.def_480 (not .def_479))) (let ((.def_481 (+ .def_219 .def_20))) (let ((.def_482 (< .def_481 1))) (let ((.def_483 (not .def_482))) (let ((.def_484 (or .def_483 .def_480))) (let ((.def_485 (< .def_146 (- 1)))) (let ((.def_486 (and .def_37 .def_485))) (let ((.def_487 (not .def_486))) (let ((.def_488 (and .def_487 .def_484))) (let ((.def_489 (not .def_488))) (let ((.def_490 (+ .def_141 .def_219))) (let ((.def_491 (< .def_490 1))) (let ((.def_492 (and A2 .def_491))) (let ((.def_493 (and .def_492 .def_167))) (let ((.def_494 (or .def_493 .def_489))) (let ((.def_495 (and .def_66 A1))) (let ((.def_496 (and A4 A7))) (let ((.def_497 (or .def_496 .def_495))) (let ((.def_498 (not .def_497))) (let ((.def_499 (or A1 .def_68))) (let ((.def_500 (and .def_169 .def_190))) (let ((.def_501 (not .def_500))) (let ((.def_502 (and .def_501 .def_499))) (let ((.def_503 (and .def_502 .def_498))) (let ((.def_504 (and .def_503 .def_494))) (let ((.def_505 (+ .def_13 .def_141))) (let ((.def_506 (< .def_505 (- 1)))) (let ((.def_507 (or A3 .def_506))) (let ((.def_508 (not .def_507))) (let ((.def_509 (< .def_134 1))) (let ((.def_510 (not .def_397))) (let ((.def_511 (and .def_510 .def_509))) (let ((.def_512 (not .def_511))) (let ((.def_513 (or .def_512 .def_508))) (let ((.def_514 (not .def_513))) (let ((.def_515 (not .def_301))) (let ((.def_516 (+ .def_22 .def_141))) (let ((.def_517 (< .def_516 (- 1)))) (let ((.def_518 (not .def_517))) (let ((.def_519 (or .def_518 .def_515))) (let ((.def_520 (or A5 .def_125))) (let ((.def_521 (not .def_520))) (let ((.def_522 (or .def_521 .def_519))) (let ((.def_523 (not .def_522))) (let ((.def_524 (or .def_523 .def_514))) (let ((.def_525 (= A3 A7))) (let ((.def_526 (not .def_525))) (let ((.def_527 (and .def_46 A0))) (let ((.def_528 (not .def_527))) (let ((.def_529 (or .def_528 .def_526))) (let ((.def_530 (not .def_529))) (let ((.def_531 (< .def_219 (- 1)))) (let ((.def_532 (not .def_531))) (let ((.def_533 (not .def_448))) (let ((.def_534 (and .def_533 .def_532))) (let ((.def_535 (not .def_534))) (let ((.def_536 (not .def_101))) (let ((.def_537 (or .def_222 .def_536))) (let ((.def_538 (or .def_537 .def_535))) (let ((.def_539 (and .def_538 .def_530))) (let ((.def_540 (not .def_539))) (let ((.def_541 (or .def_540 .def_524))) (let ((.def_542 (and .def_541 .def_504))) (let ((.def_543 (not .def_542))) (let ((.def_544 (or .def_169 .def_316))) (let ((.def_545 (not .def_544))) (let ((.def_546 (and .def_66 .def_66))) (let ((.def_547 (or .def_546 .def_545))) (let ((.def_548 (not .def_547))) (let ((.def_549 (not .def_485))) (let ((.def_550 (+ .def_56 .def_13))) (let ((.def_551 (< .def_550 1))) (let ((.def_552 (not .def_551))) (let ((.def_553 (or .def_552 .def_549))) (let ((.def_554 (not .def_553))) (let ((.def_555 (not .def_21))) (let ((.def_556 (or .def_555 .def_198))) (let ((.def_557 (and .def_556 .def_554))) (let ((.def_558 (not .def_557))) (let ((.def_559 (or .def_558 .def_548))) (let ((.def_560 (+ .def_146 .def_142))) (let ((.def_561 (< .def_560 (- 1)))) (let ((.def_562 (not .def_561))) (let ((.def_563 (and A8 .def_562))) (let ((.def_564 (not .def_563))) (let ((.def_565 (= .def_62 A9))) (let ((.def_566 (not .def_565))) (let ((.def_567 (or .def_566 .def_564))) (let ((.def_568 (not .def_567))) (let ((.def_569 (or .def_122 A4))) (let ((.def_570 (+ .def_8 .def_56))) (let ((.def_571 (< .def_570 1))) (let ((.def_572 (and A3 .def_571))) (let ((.def_573 (not .def_572))) (let ((.def_574 (and .def_573 .def_569))) (let ((.def_575 (not .def_574))) (let ((.def_576 (and .def_575 .def_568))) (let ((.def_577 (= .def_576 .def_559))) (let ((.def_578 (not .def_577))) (let ((.def_579 (< .def_56 (- 1)))) (let ((.def_580 (and .def_579 .def_116))) (let ((.def_581 (not .def_580))) (let ((.def_582 (or A6 .def_169))) (let ((.def_583 (not .def_582))) (let ((.def_584 (or .def_583 .def_581))) (let ((.def_585 (and .def_290 .def_9))) (let ((.def_586 (not .def_585))) (let ((.def_587 (or .def_125 A4))) (let ((.def_588 (or .def_587 .def_586))) (let ((.def_589 (and .def_588 .def_584))) (let ((.def_590 (not .def_589))) (let ((.def_591 (+ .def_159 .def_14))) (let ((.def_592 (< .def_591 1))) (let ((.def_593 (or .def_68 .def_592))) (let ((.def_594 (or .def_118 .def_116))) (let ((.def_595 (and .def_594 .def_593))) (let ((.def_596 (not .def_595))) (let ((.def_597 (+ .def_84 .def_8))) (let ((.def_598 (< .def_597 (- 1)))) (let ((.def_599 (and .def_598 .def_0))) (let ((.def_600 (and A7 A2))) (let ((.def_601 (= .def_600 .def_599))) (let ((.def_602 (not .def_601))) (let ((.def_603 (or .def_602 .def_596))) (let ((.def_604 (and .def_603 .def_590))) (let ((.def_605 (not .def_604))) (let ((.def_606 (and .def_605 .def_578))) (let ((.def_607 (not .def_606))) (let ((.def_608 (and .def_607 .def_543))) (let ((.def_609 (not .def_608))) (let ((.def_610 (= .def_609 .def_477))) (let ((.def_611 (not .def_610))) (let ((.def_612 (= .def_611 .def_335))) (let ((.def_613 (not .def_612))) (let ((.def_614 (<= x9 1))) (let ((.def_615 (<= 0 x9))) (let ((.def_616 (<= x8 1))) (let ((.def_617 (<= 0 x8))) (let ((.def_618 (<= x7 1))) (let ((.def_619 (<= 0 x7))) (let ((.def_620 (<= x6 1))) (let ((.def_621 (<= 0 x6))) (let ((.def_622 (<= x5 1))) (let ((.def_623 (<= 0 x5))) (let ((.def_624 (<= x4 1))) (let ((.def_625 (<= 0 x4))) (let ((.def_626 (<= x3 1))) (let ((.def_627 (<= 0 x3))) (let ((.def_628 (<= x2 1))) (let ((.def_629 (<= 0 x2))) (let ((.def_630 (<= x1 1))) (let ((.def_631 (<= 0 x1))) (let ((.def_632 (<= x0 1))) (let ((.def_633 (<= 0 x0))) (let ((.def_634 (and .def_633 .def_632 .def_631 .def_630 .def_629 .def_628 .def_627 .def_626 .def_625 .def_624 .def_623 .def_622 .def_621 .def_620 .def_619 .def_618 .def_617 .def_616 .def_615 .def_614 .def_613))) .def_634))))))))))))))))))))))))))))))))))))))))))))))))))))))))))))))))))))))))))))))))))))))))))))))))))))))))))))))))))))))))))))))))))))))))))))))))))))))))))))))))))))))))))))))))))))))))))))))))))))))))))))))))))))))))))))))))))))))))))))))))))))))))))))))))))))))))))))))))))))))))))))))))))))))))))))))))))))))))))))))))))))))))))))))))))))))))))))))))))))))))))))))))))))))))))))))))))))))))))))))))))))))))))))))))))))))))))))))))))))))))))))))))))))))))))))))))))))))))))))))))))))))))))))))))))))))))))))))))))))))))))))))))))))))))))))))))))))))))))))))))))))))))))))))))))))))))))))))))))))))))))))))))))))))))))))))))))))))))))))
(check-sat)
